BAYES
625
2 2 2 2 2 2 2 2 2 2 2 2 2 2 2 2 2 2 2 2 2 2 2 2 2 2 2 2 2 2 2 2 2 2 2 2 2 2 2 2 2 2 2 2 2 2 2 2 2 2 2 2 2 2 2 2 2 2 2 2 2 2 2 2 2 2 2 2 2 2 2 2 2 2 2 2 2 2 2 2 2 2 2 2 2 2 2 2 2 2 2 2 2 2 2 2 2 2 2 2 2 2 2 2 2 2 2 2 2 2 2 2 2 2 2 2 2 2 2 2 2 2 2 2 2 2 2 2 2 2 2 2 2 2 2 2 2 2 2 2 2 2 2 2 2 2 2 2 2 2 2 2 2 2 2 2 2 2 2 2 2 2 2 2 2 2 2 2 2 2 2 2 2 2 2 2 2 2 2 2 2 2 2 2 2 2 2 2 2 2 2 2 2 2 2 2 2 2 2 2 2 2 2 2 2 2 2 2 2 2 2 2 2 2 2 2 2 2 2 2 2 2 2 2 2 2 2 2 2 2 2 2 2 2 2 2 2 2 2 2 2 2 2 2 2 2 2 2 2 2 2 2 2 2 2 2 2 2 2 2 2 2 2 2 2 2 2 2 2 2 2 2 2 2 2 2 2 2 2 2 2 2 2 2 2 2 2 2 2 2 2 2 2 2 2 2 2 2 2 2 2 2 2 2 2 2 2 2 2 2 2 2 2 2 2 2 2 2 2 2 2 2 2 2 2 2 2 2 2 2 2 2 2 2 2 2 2 2 2 2 2 2 2 2 2 2 2 2 2 2 2 2 2 2 2 2 2 2 2 2 2 2 2 2 2 2 2 2 2 2 2 2 2 2 2 2 2 2 2 2 2 2 2 2 2 2 2 2 2 2 2 2 2 2 2 2 2 2 2 2 2 2 2 2 2 2 2 2 2 2 2 2 2 2 2 2 2 2 2 2 2 2 2 2 2 2 2 2 2 2 2 2 2 2 2 2 2 2 2 2 2 2 2 2 2 2 2 2 2 2 2 2 2 2 2 2 2 2 2 2 2 2 2 2 2 2 2 2 2 2 2 2 2 2 2 2 2 2 2 2 2 2 2 2 2 2 2 2 2 2 2 2 2 2 2 2 2 2 2 2 2 2 2 2 2 2 2 2 2 2 2 2 2 2 2 2 2 2 2 2 2 2 2 2 2 2 2 2 2 2 2 2 2 2 2 2 2 2 2 2 2 2 2 2 2 2 2 2 2 2 2 2 2 2 2 2 2 2 2 2 2 2 2 2 2 2 2 2 2 2 2 2 2 2 2 2 2 2 2 2 2 2 2 2 2 2 2 2 2 2 2 2 2 2 2 2 2 2 2 2 2 2 2 2 2 2 2 2 2 2 2 2 2 2 2 2 2 2 2 2 2 2 2 2 2
625
3 1 25 0
3 2 26 1
3 3 27 2
3 4 28 3
3 5 29 4
3 6 30 5
3 7 31 6
3 8 32 7
3 9 33 8
3 10 34 9
3 11 35 10
3 12 36 11
3 13 37 12
3 14 38 13
3 15 39 14
3 16 40 15
3 17 41 16
3 18 42 17
3 19 43 18
3 20 44 19
3 21 45 20
3 22 46 21
3 23 47 22
3 24 48 23
2 25 24
3 26 50 25
3 27 51 26
3 28 52 27
3 29 53 28
3 30 54 29
3 31 55 30
3 32 56 31
3 33 57 32
3 34 58 33
3 35 59 34
3 36 60 35
3 37 61 36
3 38 62 37
3 39 63 38
3 40 64 39
3 41 65 40
3 42 66 41
3 43 67 42
3 44 68 43
3 45 69 44
3 46 70 45
3 47 71 46
3 48 72 47
3 49 73 48
2 50 49
3 51 75 50
3 52 76 51
3 53 77 52
3 54 78 53
3 55 79 54
3 56 80 55
3 57 81 56
3 58 82 57
3 59 83 58
3 60 84 59
3 61 85 60
3 62 86 61
3 63 87 62
3 64 88 63
3 65 89 64
3 66 90 65
3 67 91 66
3 68 92 67
3 69 93 68
3 70 94 69
3 71 95 70
3 72 96 71
3 73 97 72
3 74 98 73
2 75 74
3 76 100 75
3 77 101 76
3 78 102 77
3 79 103 78
3 80 104 79
3 81 105 80
3 82 106 81
3 83 107 82
3 84 108 83
3 85 109 84
3 86 110 85
3 87 111 86
3 88 112 87
3 89 113 88
3 90 114 89
3 91 115 90
3 92 116 91
3 93 117 92
3 94 118 93
3 95 119 94
3 96 120 95
3 97 121 96
3 98 122 97
3 99 123 98
2 100 99
3 101 125 100
3 102 126 101
3 103 127 102
3 104 128 103
3 105 129 104
3 106 130 105
3 107 131 106
3 108 132 107
3 109 133 108
3 110 134 109
3 111 135 110
3 112 136 111
3 113 137 112
3 114 138 113
3 115 139 114
3 116 140 115
3 117 141 116
3 118 142 117
3 119 143 118
3 120 144 119
3 121 145 120
3 122 146 121
3 123 147 122
3 124 148 123
2 125 124
3 126 150 125
3 127 151 126
3 128 152 127
3 129 153 128
3 130 154 129
3 131 155 130
3 132 156 131
3 133 157 132
3 134 158 133
3 135 159 134
3 136 160 135
3 137 161 136
3 138 162 137
3 139 163 138
3 140 164 139
3 141 165 140
3 142 166 141
3 143 167 142
3 144 168 143
3 145 169 144
3 146 170 145
3 147 171 146
3 148 172 147
3 149 173 148
2 150 149
3 151 175 150
3 152 176 151
3 153 177 152
3 154 178 153
3 155 179 154
3 156 180 155
3 157 181 156
3 158 182 157
3 159 183 158
3 160 184 159
3 161 185 160
3 162 186 161
3 163 187 162
3 164 188 163
3 165 189 164
3 166 190 165
3 167 191 166
3 168 192 167
3 169 193 168
3 170 194 169
3 171 195 170
3 172 196 171
3 173 197 172
3 174 198 173
2 175 174
3 176 200 175
3 177 201 176
3 178 202 177
3 179 203 178
3 180 204 179
3 181 205 180
3 182 206 181
3 183 207 182
3 184 208 183
3 185 209 184
3 186 210 185
3 187 211 186
3 188 212 187
3 189 213 188
3 190 214 189
3 191 215 190
3 192 216 191
3 193 217 192
3 194 218 193
3 195 219 194
3 196 220 195
3 197 221 196
3 198 222 197
3 199 223 198
2 200 199
3 201 225 200
3 202 226 201
3 203 227 202
3 204 228 203
3 205 229 204
3 206 230 205
3 207 231 206
3 208 232 207
3 209 233 208
3 210 234 209
3 211 235 210
3 212 236 211
3 213 237 212
3 214 238 213
3 215 239 214
3 216 240 215
3 217 241 216
3 218 242 217
3 219 243 218
3 220 244 219
3 221 245 220
3 222 246 221
3 223 247 222
3 224 248 223
2 225 224
3 226 250 225
3 227 251 226
3 228 252 227
3 229 253 228
3 230 254 229
3 231 255 230
3 232 256 231
3 233 257 232
3 234 258 233
3 235 259 234
3 236 260 235
3 237 261 236
3 238 262 237
3 239 263 238
3 240 264 239
3 241 265 240
3 242 266 241
3 243 267 242
3 244 268 243
3 245 269 244
3 246 270 245
3 247 271 246
3 248 272 247
3 249 273 248
2 250 249
3 251 275 250
3 252 276 251
3 253 277 252
3 254 278 253
3 255 279 254
3 256 280 255
3 257 281 256
3 258 282 257
3 259 283 258
3 260 284 259
3 261 285 260
3 262 286 261
3 263 287 262
3 264 288 263
3 265 289 264
3 266 290 265
3 267 291 266
3 268 292 267
3 269 293 268
3 270 294 269
3 271 295 270
3 272 296 271
3 273 297 272
3 274 298 273
2 275 274
3 276 300 275
3 277 301 276
3 278 302 277
3 279 303 278
3 280 304 279
3 281 305 280
3 282 306 281
3 283 307 282
3 284 308 283
3 285 309 284
3 286 310 285
3 287 311 286
3 288 312 287
3 289 313 288
3 290 314 289
3 291 315 290
3 292 316 291
3 293 317 292
3 294 318 293
3 295 319 294
3 296 320 295
3 297 321 296
3 298 322 297
3 299 323 298
2 300 299
3 301 325 300
3 302 326 301
3 303 327 302
3 304 328 303
3 305 329 304
3 306 330 305
3 307 331 306
3 308 332 307
3 309 333 308
3 310 334 309
3 311 335 310
3 312 336 311
3 313 337 312
3 314 338 313
3 315 339 314
3 316 340 315
3 317 341 316
3 318 342 317
3 319 343 318
3 320 344 319
3 321 345 320
3 322 346 321
3 323 347 322
3 324 348 323
2 325 324
3 326 350 325
3 327 351 326
3 328 352 327
3 329 353 328
3 330 354 329
3 331 355 330
3 332 356 331
3 333 357 332
3 334 358 333
3 335 359 334
3 336 360 335
3 337 361 336
3 338 362 337
3 339 363 338
3 340 364 339
3 341 365 340
3 342 366 341
3 343 367 342
3 344 368 343
3 345 369 344
3 346 370 345
3 347 371 346
3 348 372 347
3 349 373 348
2 350 349
3 351 375 350
3 352 376 351
3 353 377 352
3 354 378 353
3 355 379 354
3 356 380 355
3 357 381 356
3 358 382 357
3 359 383 358
3 360 384 359
3 361 385 360
3 362 386 361
3 363 387 362
3 364 388 363
3 365 389 364
3 366 390 365
3 367 391 366
3 368 392 367
3 369 393 368
3 370 394 369
3 371 395 370
3 372 396 371
3 373 397 372
3 374 398 373
2 375 374
3 376 400 375
3 377 401 376
3 378 402 377
3 379 403 378
3 380 404 379
3 381 405 380
3 382 406 381
3 383 407 382
3 384 408 383
3 385 409 384
3 386 410 385
3 387 411 386
3 388 412 387
3 389 413 388
3 390 414 389
3 391 415 390
3 392 416 391
3 393 417 392
3 394 418 393
3 395 419 394
3 396 420 395
3 397 421 396
3 398 422 397
3 399 423 398
2 400 399
3 401 425 400
3 402 426 401
3 403 427 402
3 404 428 403
3 405 429 404
3 406 430 405
3 407 431 406
3 408 432 407
3 409 433 408
3 410 434 409
3 411 435 410
3 412 436 411
3 413 437 412
3 414 438 413
3 415 439 414
3 416 440 415
3 417 441 416
3 418 442 417
3 419 443 418
3 420 444 419
3 421 445 420
3 422 446 421
3 423 447 422
3 424 448 423
2 425 424
3 426 450 425
3 427 451 426
3 428 452 427
3 429 453 428
3 430 454 429
3 431 455 430
3 432 456 431
3 433 457 432
3 434 458 433
3 435 459 434
3 436 460 435
3 437 461 436
3 438 462 437
3 439 463 438
3 440 464 439
3 441 465 440
3 442 466 441
3 443 467 442
3 444 468 443
3 445 469 444
3 446 470 445
3 447 471 446
3 448 472 447
3 449 473 448
2 450 449
3 451 475 450
3 452 476 451
3 453 477 452
3 454 478 453
3 455 479 454
3 456 480 455
3 457 481 456
3 458 482 457
3 459 483 458
3 460 484 459
3 461 485 460
3 462 486 461
3 463 487 462
3 464 488 463
3 465 489 464
3 466 490 465
3 467 491 466
3 468 492 467
3 469 493 468
3 470 494 469
3 471 495 470
3 472 496 471
3 473 497 472
3 474 498 473
2 475 474
3 476 500 475
3 477 501 476
3 478 502 477
3 479 503 478
3 480 504 479
3 481 505 480
3 482 506 481
3 483 507 482
3 484 508 483
3 485 509 484
3 486 510 485
3 487 511 486
3 488 512 487
3 489 513 488
3 490 514 489
3 491 515 490
3 492 516 491
3 493 517 492
3 494 518 493
3 495 519 494
3 496 520 495
3 497 521 496
3 498 522 497
3 499 523 498
2 500 499
3 501 525 500
3 502 526 501
3 503 527 502
3 504 528 503
3 505 529 504
3 506 530 505
3 507 531 506
3 508 532 507
3 509 533 508
3 510 534 509
3 511 535 510
3 512 536 511
3 513 537 512
3 514 538 513
3 515 539 514
3 516 540 515
3 517 541 516
3 518 542 517
3 519 543 518
3 520 544 519
3 521 545 520
3 522 546 521
3 523 547 522
3 524 548 523
2 525 524
3 526 550 525
3 527 551 526
3 528 552 527
3 529 553 528
3 530 554 529
3 531 555 530
3 532 556 531
3 533 557 532
3 534 558 533
3 535 559 534
3 536 560 535
3 537 561 536
3 538 562 537
3 539 563 538
3 540 564 539
3 541 565 540
3 542 566 541
3 543 567 542
3 544 568 543
3 545 569 544
3 546 570 545
3 547 571 546
3 548 572 547
3 549 573 548
2 550 549
3 551 575 550
3 552 576 551
3 553 577 552
3 554 578 553
3 555 579 554
3 556 580 555
3 557 581 556
3 558 582 557
3 559 583 558
3 560 584 559
3 561 585 560
3 562 586 561
3 563 587 562
3 564 588 563
3 565 589 564
3 566 590 565
3 567 591 566
3 568 592 567
3 569 593 568
3 570 594 569
3 571 595 570
3 572 596 571
3 573 597 572
3 574 598 573
2 575 574
3 576 600 575
3 577 601 576
3 578 602 577
3 579 603 578
3 580 604 579
3 581 605 580
3 582 606 581
3 583 607 582
3 584 608 583
3 585 609 584
3 586 610 585
3 587 611 586
3 588 612 587
3 589 613 588
3 590 614 589
3 591 615 590
3 592 616 591
3 593 617 592
3 594 618 593
3 595 619 594
3 596 620 595
3 597 621 596
3 598 622 597
3 599 623 598
2 600 599
2 625 600
2 626 601
2 627 602
2 628 603
2 629 604
2 630 605
2 631 606
2 632 607
2 633 608
2 634 609
2 635 610
2 636 611
2 637 612
2 638 613
2 639 614
2 640 615
2 641 616
2 642 617
2 643 618
2 644 619
2 645 620
2 646 621
2 647 622
2 648 623
1  624
8
0 1 1 0 1 0 1 0
8
1 0 1 0 1 0 1 0
8
1 0 0 1 0 1 0 1
8
0 1 0 1 1 0 0 1
8
1 0 1 0 1 0 1 0
8
0 1 0 1 0 1 1 0
8
1 0 1 0 1 0 1 0
8
0 1 1 0 0 1 0 1
8
1 0 0 1 1 0 0 1
8
1 0 1 0 1 0 1 0
8
1 0 0 1 1 0 1 0
8
1 0 0 1 0 1 1 0
8
0 1 1 0 1 0 0 1
8
0 1 1 0 1 0 1 0
8
0.9159238322346113 0.08407616776538873 0.20787197406225832 0.7921280259377417 0.6177724159990308 0.3822275840009693 0.17819772386806287 0.8218022761319371
8
0 1 0 1 0 1 1 0
8
1 0 0 1 0 1 0 1
8
0 1 0 1 1 0 1 0
8
0 1 1 0 1 0 1 0
8
1 0 1 0 0 1 0 1
8
0 1 0 1 0 1 0 1
8
0 1 0 1 1 0 0 1
8
0 1 1 0 0 1 0 1
8
0 1 0 1 1 0 0 1
4
0 1 0 1
8
1 0 0 1 0 1 0 1
8
0.6385889227396911 0.3614110772603089 0.3184390177204963 0.6815609822795037 0.778641803282701 0.22135819671729892 0.5998815990826977 0.4001184009173024
8
1 0 1 0 1 0 0 1
8
1 0 1 0 0 1 1 0
8
1 0 0 1 1 0 0 1
8
0.8217472442533458 0.17825275574665425 0.34040572177286904 0.659594278227131 0.9640615827558403 0.0359384172441597 0.6503928384578846 0.3496071615421153
8
0 1 1 0 1 0 0 1
8
1 0 1 0 1 0 0 1
8
0 1 0 1 0 1 0 1
8
1 0 0 1 0 1 1 0
8
0.572840505937258 0.42715949406274206 0.9865329034128966 0.013467096587103418 0.22137793001867198 0.778622069981328 0.18030917385336426 0.8196908261466357
8
0 1 0 1 1 0 0 1
8
0 1 0 1 0 1 0 1
8
1 0 1 0 1 0 1 0
8
0 1 0 1 1 0 0 1
8
0 1 1 0 1 0 1 0
8
0 1 1 0 0 1 1 0
8
1 0 1 0 0 1 0 1
8
1 0 1 0 1 0 1 0
8
0 1 1 0 0 1 1 0
8
1 0 1 0 1 0 1 0
8
1 0 1 0 1 0 0 1
8
0 1 0 1 1 0 1 0
8
1 0 1 0 1 0 0 1
4
0.3821369705249954 0.6178630294750047 0.15680441324161923 0.8431955867583808
8
1 0 0 1 1 0 0 1
8
0 1 1 0 0 1 1 0
8
1 0 1 0 0 1 1 0
8
1 0 1 0 1 0 0 1
8
0 1 1 0 0 1 1 0
8
0 1 1 0 0 1 1 0
8
0.3960225797008285 0.6039774202991715 0.8585073111503824 0.1414926888496176 0.40985352664267866 0.5901464733573214 0.22704802978039418 0.7729519702196058
8
0 1 1 0 0 1 0 1
8
1 0 1 0 1 0 1 0
8
0 1 0 1 1 0 0 1
8
0.7610064664583769 0.2389935335416231 0.5872044371159488 0.41279556288405117 0.32868694726396697 0.6713130527360331 0.1631799322397451 0.8368200677602549
8
0 1 1 0 0 1 1 0
8
0 1 1 0 1 0 0 1
8
0 1 0 1 0 1 0 1
8
0 1 1 0 0 1 0 1
8
1 0 1 0 1 0 1 0
8
0 1 0 1 0 1 1 0
8
1 0 1 0 0 1 0 1
8
0 1 1 0 1 0 1 0
8
1 0 1 0 1 0 1 0
8
0 1 0 1 0 1 0 1
8
1 0 1 0 0 1 0 1
8
0 1 0 1 1 0 0 1
8
0.5404139397423924 0.4595860602576076 0.6475961226285458 0.35240387737145423 0.07671645514689975 0.9232835448531003 0.4698059924528281 0.5301940075471718
4
0 1 1 0
8
1 0 0 1 0 1 1 0
8
0 1 1 0 1 0 1 0
8
0 1 0 1 1 0 0 1
8
0 1 1 0 0 1 0 1
8
0 1 1 0 0 1 0 1
8
0 1 1 0 1 0 1 0
8
0 1 1 0 0 1 1 0
8
1 0 0 1 1 0 1 0
8
0 1 0 1 1 0 1 0
8
1 0 1 0 0 1 0 1
8
0.2675260798790371 0.7324739201209629 0.44694505253129413 0.553054947468706 0.572329333048984 0.427670666951016 0.3223197393625372 0.6776802606374628
8
1 0 1 0 0 1 1 0
8
1 0 1 0 1 0 1 0
8
1 0 1 0 0 1 0 1
8
1 0 0 1 1 0 1 0
8
0 1 1 0 0 1 0 1
8
0 1 1 0 1 0 0 1
8
0 1 1 0 0 1 1 0
8
1 0 0 1 0 1 1 0
8
0.3370208426101693 0.6629791573898306 0.5461359500426244 0.4538640499573756 0.9431075830500472 0.05689241694995289 0.4702408898565505 0.5297591101434495
8
0 1 0 1 0 1 0 1
8
0 1 1 0 0 1 1 0
8
0 1 0 1 1 0 0 1
8
0 1 0 1 1 0 0 1
4
0 1 0 1
8
0 1 0 1 0 1 1 0
8
1 0 1 0 0 1 0 1
8
0 1 1 0 0 1 0 1
8
0.9308536610393702 0.06914633896062987 0.19415515434953584 0.8058448456504642 0.7839487690065192 0.21605123099348073 0.26019554975141457 0.7398044502485854
8
1 0 0 1 0 1 0 1
8
1 0 1 0 0 1 0 1
8
1 0 0 1 1 0 0 1
8
1 0 0 1 1 0 1 0
8
0 1 0 1 0 1 0 1
8
0.5212426291490987 0.4787573708509014 0.7455172290994504 0.25448277090054955 0.7075145182427509 0.29248548175724914 0.9568663294494628 0.04313367055053718
8
0 1 1 0 1 0 1 0
8
0 1 1 0 1 0 0 1
8
0 1 1 0 1 0 0 1
8
1 0 1 0 0 1 1 0
8
0 1 1 0 1 0 0 1
8
0 1 0 1 1 0 1 0
8
0 1 0 1 0 1 1 0
8
0 1 1 0 1 0 1 0
8
1 0 0 1 1 0 1 0
8
1 0 0 1 0 1 1 0
8
1 0 0 1 1 0 0 1
8
0 1 0 1 1 0 0 1
8
1 0 1 0 1 0 1 0
8
1 0 1 0 1 0 1 0
4
0 1 1 0
8
0 1 1 0 0 1 0 1
8
1 0 1 0 0 1 0 1
8
0 1 0 1 0 1 0 1
8
0 1 0 1 1 0 0 1
8
1 0 0 1 1 0 1 0
8
0 1 1 0 0 1 0 1
8
0 1 0 1 0 1 0 1
8
1 0 1 0 0 1 1 0
8
0 1 1 0 1 0 1 0
8
0 1 0 1 1 0 1 0
8
0 1 0 1 0 1 1 0
8
0 1 0 1 1 0 1 0
8
0 1 1 0 1 0 1 0
8
0.487033107336116 0.512966892663884 0.39716203754050783 0.6028379624594922 0.5095281873120516 0.49047181268794837 0.9020921040266221 0.09790789597337793
8
0 1 0 1 1 0 0 1
8
0 1 1 0 1 0 0 1
8
0 1 1 0 0 1 1 0
8
0 1 1 0 1 0 0 1
8
0.5663929793799074 0.43360702062009254 0.7490262916369758 0.25097370836302435 0.6048077937659313 0.3951922062340687 0.021216296681510177 0.9787837033184899
8
0 1 1 0 0 1 0 1
8
0 1 0 1 1 0 1 0
8
1 0 0 1 0 1 0 1
8
0 1 1 0 1 0 1 0
8
1 0 0 1 0 1 0 1
4
0 1 1 0
8
0 1 1 0 0 1 0 1
8
1 0 0 1 0 1 1 0
8
1 0 1 0 0 1 0 1
8
1 0 0 1 0 1 0 1
8
0 1 0 1 0 1 0 1
8
1 0 1 0 0 1 0 1
8
1 0 1 0 0 1 0 1
8
1 0 1 0 0 1 0 1
8
0.3445861001950103 0.6554138998049898 0.6937640827659315 0.3062359172340686 0.02222135191307268 0.9777786480869273 0.01615282905282011 0.9838471709471799
8
1 0 0 1 1 0 1 0
8
0.2464190612754224 0.7535809387245777 0.24582981139910368 0.7541701886008965 0.5365639497865642 0.4634360502134357 0.7364312721937071 0.2635687278062929
8
1 0 1 0 1 0 0 1
8
1 0 0 1 1 0 0 1
8
0 1 1 0 1 0 0 1
8
1 0 0 1 1 0 1 0
8
0.6617263250595676 0.3382736749404323 0.5378527585490326 0.4621472414509674 0.7387259417148715 0.26127405828512845 0.41043847067552963 0.5895615293244704
8
0.2924686521772942 0.7075313478227059 0.6742597010704048 0.3257402989295951 0.47897835341193284 0.5210216465880672 0.8539955805145584 0.14600441948544168
8
0 1 0 1 1 0 0 1
8
0 1 1 0 0 1 0 1
8
1 0 1 0 1 0 1 0
8
1 0 1 0 1 0 0 1
8
0 1 1 0 1 0 0 1
8
0 1 0 1 1 0 0 1
8
0 1 1 0 1 0 1 0
4
1 0 1 0
8
0.6243460656835405 0.37565393431645955 0.7763337974079157 0.2236662025920842 0.31873280673277327 0.6812671932672266 0.16074469965564256 0.8392553003443575
8
1 0 0 1 0 1 1 0
8
0 1 1 0 0 1 1 0
8
0 1 0 1 1 0 0 1
8
0 1 1 0 0 1 1 0
8
0 1 1 0 0 1 1 0
8
0 1 1 0 0 1 1 0
8
1 0 1 0 0 1 0 1
8
1 0 1 0 0 1 0 1
8
1 0 0 1 0 1 0 1
8
0.5040814552913447 0.4959185447086552 0.4715677027095416 0.5284322972904584 0.9160082213388998 0.08399177866110018 0.34901099602284796 0.650989003977152
8
1 0 0 1 1 0 1 0
8
1 0 1 0 0 1 0 1
8
1 0 1 0 1 0 0 1
8
0 1 0 1 1 0 1 0
8
1 0 0 1 1 0 1 0
8
1 0 0 1 1 0 0 1
8
0 1 0 1 0 1 0 1
8
0 1 1 0 0 1 1 0
8
0 1 0 1 0 1 1 0
8
0 1 0 1 1 0 1 0
8
1 0 1 0 1 0 0 1
8
0 1 0 1 0 1 1 0
8
0 1 1 0 0 1 0 1
4
1 0 1 0
8
1 0 0 1 1 0 0 1
8
0 1 1 0 0 1 1 0
8
1 0 0 1 1 0 0 1
8
0 1 1 0 1 0 0 1
8
1 0 0 1 1 0 1 0
8
0 1 0 1 1 0 1 0
8
1 0 1 0 1 0 0 1
8
1 0 0 1 1 0 1 0
8
1 0 0 1 0 1 1 0
8
0 1 0 1 0 1 0 1
8
0 1 0 1 1 0 0 1
8
0 1 0 1 1 0 0 1
8
0 1 1 0 1 0 0 1
8
0 1 0 1 1 0 0 1
8
1 0 0 1 1 0 1 0
8
1 0 0 1 0 1 1 0
8
0.8409139462623474 0.15908605373765267 0.6235960116871275 0.3764039883128725 0.526567850095523 0.473432149904477 0.3444216146792218 0.6555783853207782
8
1 0 1 0 1 0 1 0
8
1 0 0 1 1 0 1 0
8
1 0 1 0 1 0 0 1
8
1 0 0 1 0 1 1 0
8
1 0 0 1 1 0 1 0
8
1 0 0 1 0 1 1 0
8
1 0 0 1 0 1 1 0
4
0 1 0 1
8
1 0 0 1 1 0 0 1
8
0 1 0 1 1 0 1 0
8
1 0 1 0 0 1 1 0
8
0 1 0 1 0 1 1 0
8
0 1 0 1 1 0 0 1
8
1 0 1 0 0 1 0 1
8
0 1 0 1 1 0 0 1
8
0 1 0 1 1 0 0 1
8
1 0 1 0 1 0 1 0
8
0 1 1 0 0 1 0 1
8
1 0 1 0 0 1 0 1
8
1 0 0 1 1 0 1 0
8
0 1 0 1 1 0 0 1
8
0 1 0 1 0 1 0 1
8
1 0 0 1 1 0 0 1
8
1 0 0 1 0 1 0 1
8
1 0 1 0 1 0 0 1
8
0.3020201320331795 0.6979798679668204 0.2593027186948666 0.7406972813051333 0.8153927224723778 0.1846072775276222 0.7505308222349255 0.24946917776507452
8
0 1 1 0 0 1 0 1
8
0 1 0 1 1 0 1 0
8
0.35019629279435893 0.6498037072056412 0.7434311397720752 0.2565688602279248 0.9424924533011549 0.05750754669884513 0.591595264626341 0.40840473537365907
8
1 0 0 1 0 1 1 0
8
1 0 0 1 0 1 0 1
8
1 0 0 1 1 0 1 0
4
0 1 0 1
8
1 0 0 1 1 0 1 0
8
1 0 1 0 1 0 0 1
8
1 0 0 1 0 1 1 0
8
1 0 0 1 1 0 1 0
8
0 1 0 1 1 0 1 0
8
1 0 0 1 1 0 1 0
8
0.0876954284718105 0.9123045715281894 0.1958230884917693 0.8041769115082307 0.7175468763065103 0.2824531236934896 0.6075852720276474 0.3924147279723527
8
0 1 1 0 0 1 1 0
8
0 1 0 1 0 1 1 0
8
0.5910955770372394 0.4089044229627607 0.97470361996557 0.025296380034429976 0.5953897544262138 0.40461024557378616 0.5204845260553264 0.4795154739446737
8
1 0 1 0 0 1 1 0
8
1 0 0 1 1 0 0 1
8
1 0 1 0 0 1 1 0
8
0 1 0 1 0 1 0 1
8
0.7872813701738935 0.2127186298261066 0.8293898996940332 0.17061010030596677 0.42458697321084826 0.5754130267891517 0.5042962012571379 0.49570379874286213
8
0 1 1 0 0 1 1 0
8
1 0 0 1 0 1 0 1
8
0 1 1 0 1 0 0 1
8
1 0 1 0 1 0 0 1
8
0 1 0 1 0 1 1 0
8
0 1 1 0 1 0 1 0
8
1 0 0 1 0 1 0 1
8
0.09134583141639652 0.9086541685836035 0.5358074795666521 0.4641925204333479 0.8988031023360159 0.10119689766398408 0.26978962159691144 0.7302103784030884
8
1 0 0 1 0 1 0 1
4
0 1 0 1
8
0 1 1 0 1 0 0 1
8
0 1 0 1 1 0 1 0
8
1 0 1 0 1 0 0 1
8
1 0 1 0 0 1 0 1
8
0 1 0 1 1 0 0 1
8
1 0 0 1 0 1 0 1
8
1 0 1 0 0 1 1 0
8
0 1 0 1 0 1 0 1
8
0.6854313434374539 0.314568656562546 0.29856904199936146 0.7014309580006385 0.6965903357305617 0.30340966426943833 0.837716580324863 0.16228341967513701
8
0 1 0 1 0 1 0 1
8
0 1 1 0 1 0 0 1
8
1 0 1 0 1 0 1 0
8
1 0 1 0 0 1 0 1
8
0 1 0 1 1 0 1 0
8
1 0 0 1 1 0 0 1
8
1 0 1 0 1 0 1 0
8
0 1 0 1 1 0 1 0
8
1 0 0 1 1 0 1 0
8
0 1 0 1 1 0 1 0
8
1 0 0 1 1 0 1 0
8
0 1 1 0 0 1 1 0
8
1 0 0 1 1 0 1 0
8
0 1 1 0 1 0 0 1
8
0 1 0 1 1 0 1 0
4
0 1 0 1
8
1 0 0 1 1 0 1 0
8
1 0 1 0 0 1 0 1
8
1 0 0 1 1 0 0 1
8
0 1 0 1 0 1 1 0
8
0 1 0 1 0 1 0 1
8
1 0 1 0 0 1 1 0
8
1 0 1 0 0 1 0 1
8
0.2888360374765425 0.7111639625234575 0.5682577592623105 0.43174224073768946 0.5869788252423409 0.41302117475765915 0.6483109744847837 0.35168902551521625
8
0 1 0 1 1 0 0 1
8
1 0 1 0 0 1 0 1
8
1 0 1 0 0 1 1 0
8
0.5850605473705721 0.4149394526294278 0.9376045619762572 0.06239543802374277 0.30032733370643266 0.6996726662935673 0.2648209186158941 0.735179081384106
8
1 0 1 0 0 1 1 0
8
1 0 0 1 0 1 0 1
8
1 0 0 1 0 1 0 1
8
1 0 1 0 0 1 0 1
8
1 0 0 1 0 1 1 0
8
0 1 1 0 0 1 1 0
8
0 1 1 0 1 0 0 1
8
1 0 1 0 1 0 1 0
8
0 1 1 0 0 1 0 1
8
1 0 1 0 0 1 0 1
8
1 0 1 0 1 0 0 1
8
1 0 0 1 1 0 1 0
4
0 1 0 1
8
0 1 0 1 0 1 0 1
8
1 0 1 0 1 0 1 0
8
0 1 1 0 1 0 1 0
8
0 1 1 0 1 0 0 1
8
1 0 0 1 0 1 0 1
8
0 1 1 0 0 1 1 0
8
1 0 0 1 0 1 1 0
8
1 0 1 0 1 0 1 0
8
1 0 0 1 1 0 1 0
8
0.12720778232718874 0.8727922176728112 0.5398806212166454 0.46011937878335446 0.2681334406905142 0.7318665593094857 0.1300389891665175 0.8699610108334825
8
0.24456242912499562 0.7554375708750044 0.7647684045053293 0.23523159549467068 0.19425706928797373 0.8057429307120263 0.672061754136282 0.3279382458637179
8
1 0 1 0 1 0 0 1
8
0 1 0 1 1 0 1 0
8
0 1 1 0 0 1 0 1
8
0 1 1 0 1 0 1 0
8
0 1 1 0 0 1 1 0
8
0 1 1 0 0 1 1 0
8
0.5607361845658771 0.43926381543412296 0.5540783368607596 0.4459216631392403 0.23503732760657822 0.7649626723934217 0.5112699865059223 0.48873001349407774
8
0 1 1 0 1 0 1 0
8
1 0 1 0 1 0 1 0
8
0 1 1 0 0 1 1 0
8
1 0 0 1 1 0 1 0
8
0 1 1 0 0 1 0 1
8
0.03375393573038582 0.9662460642696142 0.7252936561939528 0.2747063438060471 0.4702986495743592 0.5297013504256407 0.7398927082382425 0.26010729176175745
4
0 1 1 0
8
0 1 0 1 1 0 0 1
8
0 1 1 0 1 0 0 1
8
0 1 0 1 1 0 0 1
8
1 0 0 1 0 1 0 1
8
0.9531406107975406 0.046859389202459335 0.7685680935459805 0.23143190645401945 0.6352750657001067 0.3647249342998933 0.3451688690783392 0.6548311309216608
8
1 0 0 1 0 1 1 0
8
0 1 1 0 1 0 1 0
8
0 1 0 1 1 0 0 1
8
1 0 1 0 1 0 1 0
8
1 0 1 0 0 1 1 0
8
0 1 0 1 1 0 0 1
8
0 1 1 0 1 0 1 0
8
0 1 0 1 0 1 0 1
8
0.456731560595478 0.5432684394045221 0.44211448078069443 0.5578855192193056 0.47243214186086646 0.5275678581391335 0.5185558049028902 0.48144419509710973
8
0 1 0 1 1 0 0 1
8
0 1 1 0 0 1 1 0
8
0 1 0 1 1 0 0 1
8
0 1 0 1 0 1 1 0
8
1 0 1 0 1 0 0 1
8
1 0 1 0 0 1 0 1
8
0 1 0 1 1 0 0 1
8
1 0 1 0 0 1 1 0
8
0 1 1 0 0 1 1 0
8
1 0 1 0 1 0 1 0
4
0 1 1 0
8
0.5427039730235773 0.4572960269764227 0.37526117005107495 0.6247388299489252 0.40484929212890536 0.5951507078710946 0.5319575295577164 0.4680424704422836
8
1 0 0 1 0 1 0 1
8
0 1 1 0 0 1 1 0
8
1 0 0 1 0 1 1 0
8
0 1 1 0 0 1 1 0
8
0 1 1 0 0 1 0 1
8
0.6240404255925986 0.37595957440740135 0.7549780453414884 0.2450219546585116 0.5792232253760928 0.4207767746239073 0.7862604245430318 0.21373957545696814
8
0 1 1 0 0 1 1 0
8
0 1 1 0 1 0 0 1
8
1 0 0 1 1 0 1 0
8
0 1 1 0 1 0 0 1
8
0.39078418348495947 0.6092158165150405 0.16863330307888413 0.8313666969211159 0.8081373491895302 0.19186265081046985 0.5629459151048499 0.43705408489515013
8
0 1 1 0 0 1 0 1
8
1 0 1 0 0 1 1 0
8
1 0 1 0 1 0 0 1
8
1 0 0 1 1 0 1 0
8
0 1 1 0 0 1 1 0
8
0 1 1 0 1 0 1 0
8
1 0 0 1 1 0 1 0
8
1 0 0 1 1 0 0 1
8
0 1 0 1 0 1 1 0
8
0 1 1 0 0 1 1 0
8
1 0 1 0 0 1 1 0
8
1 0 1 0 1 0 0 1
4
0 1 1 0
8
1 0 0 1 1 0 0 1
8
1 0 1 0 0 1 0 1
8
1 0 1 0 1 0 1 0
8
0 1 0 1 1 0 1 0
8
0.5446148855141683 0.4553851144858317 0.0811896322748256 0.9188103677251744 0.5470446370125305 0.4529553629874694 0.08237506500764383 0.9176249349923562
8
1 0 1 0 0 1 0 1
8
1 0 1 0 1 0 0 1
8
0 1 1 0 0 1 0 1
8
0 1 0 1 1 0 0 1
8
0 1 1 0 1 0 0 1
8
1 0 1 0 1 0 0 1
8
0 1 0 1 1 0 1 0
8
0 1 0 1 0 1 0 1
8
0 1 1 0 1 0 1 0
8
1 0 0 1 1 0 0 1
8
0 1 0 1 1 0 0 1
8
0 1 0 1 0 1 0 1
8
1 0 0 1 1 0 1 0
8
1 0 0 1 0 1 1 0
8
0.21909258080129088 0.780907419198709 0.4222411060305998 0.5777588939694002 0.5759997515191565 0.4240002484808435 0.40971525653096547 0.5902847434690346
8
1 0 1 0 1 0 0 1
8
1 0 1 0 0 1 0 1
8
0 1 0 1 0 1 1 0
8
0 1 1 0 0 1 0 1
4
0 1 0 1
8
1 0 0 1 1 0 0 1
8
0 1 0 1 1 0 0 1
8
1 0 0 1 0 1 0 1
8
1 0 1 0 1 0 0 1
8
0 1 1 0 1 0 0 1
8
0 1 0 1 0 1 1 0
8
1 0 1 0 1 0 1 0
8
1 0 0 1 0 1 0 1
8
1 0 1 0 1 0 0 1
8
1 0 0 1 0 1 0 1
8
0.887061013940147 0.11293898605985299 0.5837700101506192 0.41622998984938075 0.47143498707177767 0.5285650129282223 0.10424348516802993 0.89575651483197
8
1 0 1 0 1 0 0 1
8
0 1 1 0 0 1 0 1
8
1 0 0 1 1 0 1 0
8
1 0 1 0 1 0 1 0
8
1 0 0 1 0 1 0 1
8
1 0 0 1 1 0 0 1
8
1 0 1 0 0 1 1 0
8
0 1 0 1 0 1 0 1
8
1 0 1 0 0 1 1 0
8
1 0 0 1 1 0 1 0
8
1 0 1 0 1 0 1 0
8
1 0 1 0 0 1 0 1
8
1 0 0 1 1 0 0 1
4
1 0 1 0
8
0 1 0 1 0 1 0 1
8
0 1 1 0 1 0 1 0
8
1 0 1 0 1 0 0 1
8
1 0 1 0 1 0 1 0
8
1 0 1 0 0 1 0 1
8
0 1 1 0 0 1 0 1
8
1 0 0 1 1 0 0 1
8
0 1 1 0 0 1 1 0
8
1 0 0 1 1 0 0 1
8
1 0 1 0 1 0 1 0
8
0 1 0 1 0 1 0 1
8
1 0 0 1 1 0 1 0
8
1 0 0 1 1 0 1 0
8
1 0 1 0 1 0 0 1
8
1 0 0 1 1 0 0 1
8
1 0 0 1 0 1 1 0
8
0 1 1 0 1 0 1 0
8
0 1 1 0 0 1 1 0
8
1 0 0 1 0 1 1 0
8
0 1 0 1 1 0 1 0
8
0 1 1 0 0 1 1 0
8
0 1 1 0 1 0 1 0
8
0 1 1 0 0 1 0 1
8
1 0 1 0 0 1 1 0
4
1 0 1 0
8
0 1 1 0 0 1 0 1
8
0.6011672898478011 0.39883271015219895 0.35959177561820177 0.6404082243817983 0.8720794156310778 0.1279205843689222 0.9810534005894862 0.018946599410513777
8
0 1 1 0 1 0 1 0
8
1 0 1 0 0 1 1 0
8
0 1 1 0 0 1 0 1
8
0 1 0 1 1 0 1 0
8
1 0 0 1 0 1 0 1
8
0 1 0 1 0 1 1 0
8
0 1 0 1 0 1 1 0
8
1 0 1 0 1 0 0 1
8
0 1 1 0 1 0 0 1
8
1 0 1 0 1 0 1 0
8
0 1 0 1 0 1 0 1
8
0 1 1 0 0 1 0 1
8
0.44932051331368283 0.5506794866863172 0.7958918721634566 0.20410812783654347 0.48143117155660425 0.5185688284433957 0.7553807804076648 0.24461921959233518
8
1 0 1 0 0 1 1 0
8
0 1 1 0 0 1 0 1
8
0 1 0 1 0 1 1 0
8
0 1 0 1 1 0 1 0
8
1 0 0 1 1 0 1 0
8
1 0 0 1 0 1 0 1
8
1 0 1 0 0 1 1 0
8
0 1 0 1 1 0 1 0
8
0 1 0 1 0 1 0 1
4
1 0 0 1
8
0 1 1 0 0 1 1 0
8
0 1 1 0 0 1 1 0
8
0.5559728298082658 0.4440271701917342 0.8633340213561351 0.1366659786438648 0.611450785798143 0.3885492142018569 0.6518511019428558 0.3481488980571443
8
0 1 1 0 0 1 0 1
8
1 0 1 0 1 0 1 0
8
1 0 0 1 0 1 0 1
8
1 0 0 1 1 0 1 0
8
0.47628291981107146 0.5237170801889285 0.5321605348625603 0.46783946513743974 0.6023732235881856 0.3976267764118144 0.5142751881115005 0.4857248118884994
8
0.42945980339827444 0.5705401966017256 0.3945932566383877 0.6054067433616124 0.9953313238030204 0.004668676196979645 0.37765156234370234 0.6223484376562978
8
0.4424551936498107 0.5575448063501893 0.3080265768945302 0.6919734231054698 0.6117062457600528 0.3882937542399472 0.5534216357509669 0.4465783642490331
8
1 0 0 1 0 1 0 1
8
0.22187224597726546 0.7781277540227346 0.5194433224301387 0.4805566775698613 0.7845368914445654 0.21546310855543457 0.6160340348852222 0.3839659651147777
8
1 0 1 0 0 1 1 0
8
1 0 0 1 1 0 0 1
8
0 1 0 1 0 1 1 0
8
0 1 1 0 0 1 0 1
8
1 0 0 1 0 1 1 0
8
0 1 0 1 1 0 1 0
8
1 0 0 1 1 0 0 1
8
0.4320184730386093 0.5679815269613906 0.5325129257523483 0.4674870742476517 0.7065135797049596 0.29348642029504046 0.5923806922774271 0.407619307722573
8
0.8126350207260509 0.1873649792739491 0.4605565992475847 0.5394434007524154 0.7998099719489428 0.2001900280510572 0.3592700219030348 0.6407299780969653
8
1 0 0 1 1 0 0 1
8
0 1 1 0 1 0 0 1
8
1 0 1 0 0 1 0 1
4
0 1 1 0
8
0 1 1 0 0 1 0 1
8
0 1 1 0 0 1 0 1
8
0 1 0 1 1 0 0 1
8
0 1 0 1 1 0 1 0
8
0.28838368043481805 0.7116163195651819 0.9292596589944546 0.07074034100554541 0.2844838182015604 0.7155161817984397 0.7391573038470834 0.2608426961529165
8
0.11276256261440987 0.8872374373855901 0.426103262528235 0.573896737471765 0.6346381333646371 0.3653618666353629 0.4062420975676516 0.5937579024323484
8
0 1 1 0 0 1 0 1
8
0 1 0 1 1 0 1 0
8
0 1 1 0 0 1 1 0
8
1 0 0 1 1 0 1 0
8
0 1 1 0 1 0 1 0
8
1 0 0 1 1 0 1 0
8
1 0 1 0 1 0 1 0
8
0 1 0 1 1 0 0 1
8
0 1 0 1 1 0 1 0
8
1 0 0 1 0 1 1 0
8
0.56281921811095 0.43718078188905 0.650640710676358 0.3493592893236421 0.4246073985269626 0.5753926014730374 0.5018468644599833 0.49815313554001667
8
0.6967152622123208 0.30328473778767917 0.46892282474394503 0.5310771752560551 0.44695271194513564 0.5530472880548644 0.14997243030260507 0.8500275696973949
8
0 1 0 1 0 1 0 1
8
1 0 0 1 1 0 1 0
8
0 1 1 0 0 1 0 1
8
0 1 0 1 0 1 0 1
8
0.16755991839240075 0.8324400816075993 0.6737005370976381 0.32629946290236195 0.588377392113056 0.41162260788694405 0.8954533981012117 0.10454660189878831
8
1 0 1 0 0 1 1 0
4
1 0 1 0
8
1 0 1 0 1 0 1 0
8
0.5417045564736245 0.45829544352637563 0.1263674990076749 0.8736325009923251 0.9194992473790986 0.08050075262090138 0.45739899869723294 0.542601001302767
8
1 0 0 1 1 0 1 0
8
1 0 1 0 1 0 1 0
8
0 1 0 1 1 0 1 0
8
1 0 0 1 1 0 1 0
8
0 1 0 1 0 1 0 1
8
0 1 1 0 0 1 1 0
8
0 1 0 1 0 1 0 1
8
1 0 0 1 1 0 0 1
8
0 1 0 1 1 0 0 1
8
0 1 0 1 0 1 1 0
8
1 0 0 1 0 1 1 0
8
0 1 1 0 0 1 0 1
8
0 1 1 0 1 0 1 0
8
0 1 0 1 0 1 0 1
8
0 1 0 1 1 0 0 1
8
1 0 1 0 1 0 1 0
8
1 0 0 1 1 0 0 1
8
1 0 0 1 1 0 1 0
8
1 0 1 0 1 0 0 1
8
0 1 1 0 1 0 1 0
8
1 0 0 1 1 0 0 1
8
0 1 0 1 0 1 0 1
4
0 1 1 0
8
0 1 1 0 1 0 0 1
8
0 1 0 1 0 1 0 1
8
1 0 0 1 0 1 1 0
8
1 0 1 0 0 1 0 1
8
0 1 0 1 1 0 0 1
8
0.9541061544102857 0.04589384558971433 0.42454986471903616 0.5754501352809639 0.16673664836804197 0.8332633516319581 0.41438177857353836 0.5856182214264615
8
1 0 1 0 1 0 1 0
8
0 1 1 0 0 1 0 1
8
1 0 0 1 0 1 1 0
8
0 1 1 0 1 0 0 1
8
0 1 0 1 0 1 1 0
8
0 1 0 1 0 1 1 0
8
0 1 0 1 0 1 1 0
8
0 1 1 0 0 1 0 1
8
1 0 1 0 0 1 1 0
8
0.4204594213656184 0.5795405786343815 0.5182646542204735 0.4817353457795264 0.4888957221506001 0.5111042778493998 0.8008234419111766 0.19917655808882337
8
0 1 0 1 0 1 0 1
8
1 0 1 0 0 1 1 0
8
0 1 0 1 0 1 1 0
8
1 0 0 1 1 0 1 0
8
1 0 0 1 1 0 0 1
8
0.45139326870913077 0.5486067312908692 0.696235593562111 0.303764406437889 0.21124166070234773 0.7887583392976523 0.4052085429760831 0.5947914570239169
8
1 0 1 0 0 1 1 0
8
1 0 0 1 0 1 1 0
4
0 1 1 0
4
0.9959046477367103 0.004095352263289669 0.6496174796043004 0.3503825203956995
4
1 0 0 1
4
1 0 1 0
4
0 1 0 1
4
1 0 1 0
4
1 0 0 1
4
0 1 1 0
4
0 1 0 1
4
0 1 1 0
4
1 0 0 1
4
0.7925521629212666 0.20744783707873335 0.48850197492566966 0.5114980250743304
4
1 0 1 0
4
1 0 0 1
4
0 1 1 0
4
0 1 0 1
4
1 0 0 1
4
0.8102845239264701 0.1897154760735299 0.32680348249074065 0.6731965175092594
4
0 1 0 1
4
1 0 1 0
4
1 0 0 1
4
0 1 1 0
4
1 0 1 0
4
1 0 1 0
4
0 1 0 1
2
0 1
